data/instances/vrp_files/train_13.vrp
NAME : 13
COMMENT : Generated instance No. 13
TYPE : CVRP
DIMENSION : 21
EDGE_WEIGHT_TYPE : EUC_2D
CAPACITY : 30
NODE_COORD_SECTION
 1 23 651
 2 997 752
 3 706 778
 4 143 204
 5 714 493
 6 754 102
 7 536 378
 8 457 603
 9 502 539
 10 486 408
 11 771 12
 12 598 565
 13 716 599
 14 826 959
 15 342 227
 16 423 287
 17 614 911
 18 139 100
 19 256 726
 20 592 102
 21 918 790
DEMAND_SECTION
1 0
2 1
3 10
4 9
5 6
6 3
7 8
8 9
9 6
10 7
11 1
12 5
13 5
14 10
15 4
16 6
17 7
18 9
19 1
20 6
21 7
DEPOT_SECTION
 1
 -1
EOF